2
120 2
81
20 1 7
21 1 16
22 1 8
23 1 6
24 1 4
25 1 3
26 1 6
27 1 9
28 1 5
29 1 4
30 1 9
31 1 7
32 1 5
33 1 7
34 1 5
35 1 9
36 1 4
37 1 5
38 1 2
39 1 5
40 1 5
41 1 6
42 1 6
43 1 5
44 1 3
45 1 6
46 1 4
47 1 9
48 1 4
49 1 3
50 1 9
51 1 8
52 1 6
53 1 5
54 1 10
55 1 7
56 1 7
57 1 8
58 1 3
59 1 10
60 1 6
61 1 3
62 1 5
63 1 11
64 1 6
65 1 9
66 1 3
67 1 4
68 1 13
69 1 10
70 1 5
71 1 6
72 1 6
73 1 3
74 1 6
75 1 8
76 1 4
77 1 5
78 1 9
79 1 6
80 1 4
81 1 4
82 1 3
83 1 5
84 1 6
85 1 7
86 1 4
87 1 4
88 1 7
89 1 6
90 1 7
91 1 4
92 1 3
93 1 8
94 1 8
95 1 11
96 1 5
97 1 6
98 1 6
99 1 4
100 1 10
